14
13
2 1 0 6 7 5 3
0 5 10 6 13 2 11
10 9 3 12 11 6 2 4 13 1
9 5 7 13
10 13 0 1 8 7 9 12 6 3 5
13 9 8 2 5 12 7 0 11
13 5 7
1 11 12 9 0 2 4 8 3 7 6 13
13 1 9 0 3 2 6 4 10 5
5 2 8 13 3 7 11 12 9 10 6 0 1
7 9 11 2 1 3 0 4 5 13 6 12 10
13 8 9 5 10 12 3 11 2 4
4 8 9 12
